
50
15244

415 515
288 388
845 945
444 544
529 629
552 652
339 439
640 740
901 1001
72 172
561 661
265 365
656 756
624 724
46 146
113 213
529 629
859 959
798 898
824 924
138 238
351 451
577 677
367 467
231 331
923 1023
636 736
399 499
477 577
700 800
760 860
780 880
335 435
968 1068
764 864
271 371
172 272
431 531
261 361
878 978
10 110
818 918
162 262
812 912
433 533
132 232
986 1086
419 519
979 1079
323 423
